(declare-sort $$unsorted 0)
(declare-fun tptp.op ($$unsorted $$unsorted) $$unsorted)
(assert (forall ((X0 $$unsorted) (X1 $$unsorted) (X2 $$unsorted) (X3 $$unsorted)) (= X0 (tptp.op (tptp.op (tptp.op X1 (tptp.op X0 X1)) X2) X0))))
(assert (not (forall ((X0 $$unsorted) (X1 $$unsorted) (X2 $$unsorted) (X3 $$unsorted)) (= X0 (tptp.op (tptp.op X1 (tptp.op (tptp.op X2 X3) X3)) X0)))))
(set-info :filename Equation2915_implies_Equation2633)
(check-sat-assuming ( true ))
